\ Model courtesy-buses
\ LP format - for model browsing. Use MPS format to capture full model detail.
Minimize
  z[1] + z[2] + z[3] - 85 Constant
Subject To
 H1[0]: x[0,1,0] + x[0,2,0] + x[0,3,0] + x[1,2,0] + x[1,3,0] + x[2,1,0]
   + x[2,3,0] + x[3,1,0] + x[3,2,0] <= 5
 H1[1]: x[0,1,1] + x[0,2,1] + x[0,3,1] + x[1,2,1] + x[1,3,1] + x[2,1,1]
   + x[2,3,1] + x[3,1,1] + x[3,2,1] <= 5
 H2[1]: x[0,1,0] + x[0,1,1] + x[2,1,0] + x[2,1,1] + x[3,1,0] + x[3,1,1]
   = 1
 H2[2]: x[0,2,0] + x[0,2,1] + x[1,2,0] + x[1,2,1] + x[3,2,0] + x[3,2,1]
   = 1
 H2[3]: x[0,3,0] + x[0,3,1] + x[1,3,0] + x[1,3,1] + x[2,3,0] + x[2,3,1]
   = 1
 H3[1,0]: x[0,1,0] - x[1,0,0] - x[1,2,0] - x[1,3,0] + x[2,1,0] + x[3,1,0]
   = 0
 H3[1,1]: x[0,1,1] - x[1,0,1] - x[1,2,1] - x[1,3,1] + x[2,1,1] + x[3,1,1]
   = 0
 H3[2,0]: x[0,2,0] + x[1,2,0] - x[2,0,0] - x[2,1,0] - x[2,3,0] + x[3,2,0]
   = 0
 H3[2,1]: x[0,2,1] + x[1,2,1] - x[2,0,1] - x[2,1,1] - x[2,3,1] + x[3,2,1]
   = 0
 H3[3,0]: x[0,3,0] + x[1,3,0] + x[2,3,0] - x[3,0,0] - x[3,1,0] - x[3,2,0]
   = 0
 H3[3,1]: x[0,3,1] + x[1,3,1] + x[2,3,1] - x[3,0,1] - x[3,1,1] - x[3,2,1]
   = 0
 H4a[0]: x[0,1,0] + x[0,2,0] + x[0,3,0] = 1
 H4a[1]: x[0,1,1] + x[0,2,1] + x[0,3,1] = 1
 H4b[0]: x[1,0,0] + x[2,0,0] + x[3,0,0] = 1
 H4b[1]: x[1,0,1] + x[2,0,1] + x[3,0,1] = 1
 H5[1]: z[1] >= 30
 H5[2]: z[2] >= 40
 H5[3]: z[3] >= 15
 H6a[0,1,0]: - 10007.07106781186 x[0,1,0] - y[0,0] + y[1,0] >= -10000
 H6a[0,1,1]: - 10007.07106781186 x[0,1,1] - y[0,1] + y[1,1] >= -10000
 H6a[0,2,0]: - 10008.24621125123 x[0,2,0] - y[0,0] + y[2,0] >= -10000
 H6a[0,2,1]: - 10008.24621125123 x[0,2,1] - y[0,1] + y[2,1] >= -10000
 H6a[0,3,0]: - 10012.20655561573 x[0,3,0] - y[0,0] + y[3,0] >= -10000
 H6a[0,3,1]: - 10012.20655561573 x[0,3,1] - y[0,1] + y[3,1] >= -10000
 H6a[1,2,0]: - 10004.24264068712 x[1,2,0] - y[1,0] + y[2,0] >= -10000
 H6a[1,2,1]: - 10004.24264068712 x[1,2,1] - y[1,1] + y[2,1] >= -10000
 H6a[1,3,0]: - 10005.38516480713 x[1,3,0] - y[1,0] + y[3,0] >= -10000
 H6a[1,3,1]: - 10005.38516480713 x[1,3,1] - y[1,1] + y[3,1] >= -10000
 H6a[2,1,0]: - 10004.24264068712 x[2,1,0] + y[1,0] - y[2,0] >= -10000
 H6a[2,1,1]: - 10004.24264068712 x[2,1,1] + y[1,1] - y[2,1] >= -10000
 H6a[2,3,0]: - 10005.38516480713 x[2,3,0] - y[2,0] + y[3,0] >= -10000
 H6a[2,3,1]: - 10005.38516480713 x[2,3,1] - y[2,1] + y[3,1] >= -10000
 H6a[3,1,0]: - 10005.38516480713 x[3,1,0] + y[1,0] - y[3,0] >= -10000
 H6a[3,1,1]: - 10005.38516480713 x[3,1,1] + y[1,1] - y[3,1] >= -10000
 H6a[3,2,0]: - 10005.38516480713 x[3,2,0] + y[2,0] - y[3,0] >= -10000
 H6a[3,2,1]: - 10005.38516480713 x[3,2,1] + y[2,1] - y[3,1] >= -10000
 H6b[0,1,0]: 9992.928932188135 x[0,1,0] - y[0,0] + y[1,0] <= 10000
 H6b[0,1,1]: 9992.928932188135 x[0,1,1] - y[0,1] + y[1,1] <= 10000
 H6b[0,2,0]: 9991.753788748765 x[0,2,0] - y[0,0] + y[2,0] <= 10000
 H6b[0,2,1]: 9991.753788748765 x[0,2,1] - y[0,1] + y[2,1] <= 10000
 H6b[0,3,0]: 9987.793444384266 x[0,3,0] - y[0,0] + y[3,0] <= 10000
 H6b[0,3,1]: 9987.793444384266 x[0,3,1] - y[0,1] + y[3,1] <= 10000
 H6b[1,2,0]: 9995.75735931288 x[1,2,0] - y[1,0] + y[2,0] <= 10000
 H6b[1,2,1]: 9995.75735931288 x[1,2,1] - y[1,1] + y[2,1] <= 10000
 H6b[1,3,0]: 9994.614835192866 x[1,3,0] - y[1,0] + y[3,0] <= 10000
 H6b[1,3,1]: 9994.614835192866 x[1,3,1] - y[1,1] + y[3,1] <= 10000
 H6b[2,1,0]: 9995.75735931288 x[2,1,0] + y[1,0] - y[2,0] <= 10000
 H6b[2,1,1]: 9995.75735931288 x[2,1,1] + y[1,1] - y[2,1] <= 10000
 H6b[2,3,0]: 9994.614835192866 x[2,3,0] - y[2,0] + y[3,0] <= 10000
 H6b[2,3,1]: 9994.614835192866 x[2,3,1] - y[2,1] + y[3,1] <= 10000
 H6b[3,1,0]: 9994.614835192866 x[3,1,0] + y[1,0] - y[3,0] <= 10000
 H6b[3,1,1]: 9994.614835192866 x[3,1,1] + y[1,1] - y[3,1] <= 10000
 H6b[3,2,0]: 9994.614835192866 x[3,2,0] + y[2,0] - y[3,0] <= 10000
 H6b[3,2,1]: 9994.614835192866 x[3,2,1] + y[2,1] - y[3,1] <= 10000
 H7[1]: - yy[1,0] - yy[1,1] + z[1] = 0
 H7[2]: - yy[2,0] - yy[2,1] + z[2] = 0
 H7[3]: - yy[3,0] - yy[3,1] + z[3] = 0
 H8[1,0]: - x[1,0,0] - x[1,2,0] - x[1,3,0] + w[1,0] = 0
 H8[1,1]: - x[1,0,1] - x[1,2,1] - x[1,3,1] + w[1,1] = 0
 H8[2,0]: - x[2,0,0] - x[2,1,0] - x[2,3,0] + w[2,0] = 0
 H8[2,1]: - x[2,0,1] - x[2,1,1] - x[2,3,1] + w[2,1] = 0
 H8[3,0]: - x[3,0,0] - x[3,1,0] - x[3,2,0] + w[3,0] = 0
 H8[3,1]: - x[3,0,1] - x[3,1,1] - x[3,2,1] + w[3,1] = 0
 H9[1,0]: - 10000 w[1,0] + Mw[1,0] = 0
 H9[1,1]: - 10000 w[1,1] + Mw[1,1] = 0
 H9[2,0]: - 10000 w[2,0] + Mw[2,0] = 0
 H9[2,1]: - 10000 w[2,1] + Mw[2,1] = 0
 H9[3,0]: - 10000 w[3,0] + Mw[3,0] = 0
 H9[3,1]: - 10000 w[3,1] + Mw[3,1] = 0
Bounds
 Constant = 1
Binaries
 x[0,1,0] x[0,1,1] x[0,2,0] x[0,2,1] x[0,3,0] x[0,3,1] x[1,0,0] x[1,0,1]
 x[1,2,0] x[1,2,1] x[1,3,0] x[1,3,1] x[2,0,0] x[2,0,1] x[2,1,0] x[2,1,1]
 x[2,3,0] x[2,3,1] x[3,0,0] x[3,0,1] x[3,1,0] x[3,1,1] x[3,2,0] x[3,2,1]
 w[1,0] w[1,1] w[2,0] w[2,1] w[3,0] w[3,1]
General Constraints
 H10[1,0]: yy[1,0] = MIN ( Mw[1,0] , y[1,0] )
 H10[1,1]: yy[1,1] = MIN ( Mw[1,1] , y[1,1] )
 H10[2,0]: yy[2,0] = MIN ( Mw[2,0] , y[2,0] )
 H10[2,1]: yy[2,1] = MIN ( Mw[2,1] , y[2,1] )
 H10[3,0]: yy[3,0] = MIN ( Mw[3,0] , y[3,0] )
 H10[3,1]: yy[3,1] = MIN ( Mw[3,1] , y[3,1] )
End
